Minimize
  - 23 y_0 - 75 y_1 - 95 y_2 - 64 y_3 - 57 y_4 - 98 y_5 - 33 y_6 - 67 y_7
   - 53 y_8 - 60 y_9 - 32 y_10 - 101 y_11 - 91 y_12 - 98 y_13 - 27 y_14
   - 42 y_15 - 89 y_16 - 79 y_17 - 30 y_19 - 33 y_20 - 95 y_21 - 88 y_22
   - 52 y_23 - 32 y_24 - 69 y_25 - 48 y_26 - 43 y_27 - 89 y_28 - 98 y_29
   - 39 y_30 - 92 y_31 - 86 y_32 - 113 y_33 - 57 y_34 - 47 y_35 - 36 y_36
   - 40 y_37 - 64 y_38 - 93 y_39 - 72 y_40 - 53 y_41 - 118 y_42 - 93 y_43
   - 79 y_44 - 40 y_45 - 67 y_46 - 79 y_47 - 93 y_48 - 100 y_49 - 93 y_50
   - 111 y_51 - 83 y_52 - 87 y_53 - 79 y_54 - 102 y_55 - 84 y_56 - 79 y_57
   - 68 y_58 - 78 y_59 - 128 y_60 - 62 y_61 - 69 y_62 - 34 y_63 - 52 y_64
   - 13 y_65 - 63 y_66 - 82 y_67 - 110 y_68 - 100 y_69 - 61 y_70 - 26 y_71
   - 85 y_72 - 90 y_73 - 94 y_74 - 30 y_75 - 105 y_76 - 68 y_77 - 34 y_78
   - 27 y_79 - 101 y_80 - 93 y_81 - 41 y_82 - 69 y_83 - 100 y_84 - 34 y_85
   - 96 y_86 - 45 y_87 - 58 y_88 - 38 y_89 - 53 y_90 - 61 y_91 - 81 y_92
   - 34 y_93 - 60 y_94 - 72 y_95 - 83 y_96 - 101 y_97 - 94 y_98 - 12 y_99
   + 6845 Constant
Subject To
 c_0: y_57 = 1
 c_1_0: y_0 + y_6 + y_10 + y_14 + y_19 + y_30 + y_63 + y_65 + y_71 + y_75
   + y_78 + y_82 + y_93 + y_99 >= 1
 c_1_1: y_1 + y_34 + y_38 + y_40 + y_44 + y_46 + y_61 + y_70 >= 1
 c_1_2: y_2 + y_17 + y_22 + y_28 + y_33 + y_47 + y_54 + y_55 + y_56 + y_68
   + y_74 + y_80 + y_84 + y_86 + y_97 + y_98 >= 1
 c_1_3: y_3 + y_7 + y_9 + y_25 + y_66 + y_67 + y_77 + y_83 + y_88 + y_95
   >= 1
 c_1_4: y_4 + y_27 + y_38 + y_46 + y_59 + y_61 + y_62 + y_64 + y_90 >= 1
 c_1_5: y_5 + y_11 >= 1
 c_1_6: y_0 + y_6 + y_27 + y_65 + y_75 + y_82 + y_85 >= 1
 c_1_7: y_3 + y_7 + y_25 + y_41 + y_47 + y_54 + y_58 + y_66 + y_83 + y_88
   + y_95 + y_96 >= 1
 c_1_8: y_8 + y_23 + y_26 + y_27 + y_34 + y_38 + y_40 + y_46 + y_61 + y_64
   + y_70 + y_82 + y_90 + y_91 + y_94 >= 1
 c_1_9: y_3 + y_9 + y_25 + y_35 + y_66 + y_77 + y_83 + y_87 + y_95 >= 1
 c_1_10: y_0 + y_10 + y_14 + y_15 + y_19 + y_23 + y_24 + y_26 + y_30 + y_36
   + y_37 + y_63 + y_71 + y_75 + y_78 + y_82 + y_93 >= 1
 c_1_11: y_5 + y_11 + y_13 + y_51 + y_52 + y_74 + y_76 + y_84 + y_97 + y_98
   >= 1
 c_1_12: y_12 + y_16 + y_31 + y_32 + y_39 + y_43 + y_48 + y_49 + y_53
   + y_67 + y_69 + y_72 + y_81 + y_92 >= 1
 c_1_13: y_11 + y_13 + y_28 + y_44 + y_51 + y_52 + y_74 + y_76 + y_84
   + y_97 + y_98 >= 1
 c_1_14: y_0 + y_10 + y_14 + y_15 + y_19 + y_20 + y_24 + y_30 + y_36 + y_37
   + y_45 + y_63 + y_71 + y_75 + y_78 + y_79 + y_89 + y_93 + y_99 >= 1
 c_1_15: y_10 + y_14 + y_15 + y_19 + y_20 + y_23 + y_24 + y_26 + y_30
   + y_35 + y_36 + y_37 + y_41 + y_45 + y_63 + y_71 + y_78 + y_88 + y_89
   + y_93 >= 1
 c_1_16: y_12 + y_16 + y_31 + y_32 + y_48 + y_53 + y_67 + y_81 + y_92 >= 1
 c_1_17: y_2 + y_17 + y_28 + y_44 + y_47 + y_52 + y_54 + y_56 + y_58 + y_74
   + y_86 + y_91 + y_98 >= 1
 c_1_18: y_18 + y_65 + y_99 >= 1
 c_1_19: y_0 + y_10 + y_14 + y_15 + y_19 + y_20 + y_24 + y_26 + y_30 + y_36
   + y_37 + y_63 + y_71 + y_75 + y_78 + y_79 + y_82 + y_93 >= 1
 c_1_20: y_14 + y_15 + y_19 + y_20 + y_24 + y_35 + y_36 + y_37 + y_45
   + y_71 + y_78 + y_79 + y_87 + y_89 >= 1
 c_1_21: y_21 + y_22 + y_29 + y_39 + y_54 + y_55 + y_69 + y_96 >= 1
 c_1_22: y_2 + y_21 + y_22 + y_29 + y_47 + y_54 + y_55 + y_56 + y_86 + y_96
   >= 1
 c_1_23: y_8 + y_10 + y_15 + y_23 + y_26 + y_30 + y_34 + y_41 + y_58 + y_63
   + y_78 + y_82 + y_88 + y_91 + y_93 + y_94 >= 1
 c_1_24: y_10 + y_14 + y_15 + y_19 + y_20 + y_24 + y_35 + y_36 + y_37
   + y_45 + y_71 + y_78 + y_79 + y_87 + y_89 + y_99 >= 1
 c_1_25: y_3 + y_7 + y_9 + y_25 + y_66 + y_67 + y_72 + y_77 + y_83 + y_88
   + y_92 + y_95 + y_96 >= 1
 c_1_26: y_8 + y_10 + y_15 + y_19 + y_23 + y_26 + y_30 + y_34 + y_41 + y_63
   + y_70 + y_75 + y_78 + y_82 + y_88 + y_91 + y_93 + y_94 >= 1
 c_1_27: y_4 + y_6 + y_8 + y_27 + y_34 + y_61 + y_64 + y_75 + y_82 + y_85
   + y_90 >= 1
 c_1_28: y_2 + y_13 + y_17 + y_28 + y_44 + y_47 + y_52 + y_56 + y_74 + y_76
   + y_80 + y_84 + y_86 + y_97 + y_98 >= 1
 c_1_29: y_21 + y_22 + y_29 + y_33 + y_55 + y_69 + y_96 >= 1
 c_1_30: y_0 + y_10 + y_14 + y_15 + y_19 + y_23 + y_26 + y_30 + y_37 + y_41
   + y_63 + y_75 + y_78 + y_82 + y_93 >= 1
 c_1_31: y_12 + y_16 + y_31 + y_32 + y_39 + y_43 + y_48 + y_49 + y_53
   + y_67 + y_72 + y_81 + y_92 >= 1
 c_1_32: y_12 + y_16 + y_31 + y_32 + y_39 + y_43 + y_48 + y_49 + y_53
   + y_67 + y_69 + y_72 + y_77 + y_81 + y_92 >= 1
 c_1_33: y_2 + y_29 + y_33 + y_42 + y_55 + y_60 + y_68 + y_80 + y_86 >= 1
 c_1_34: y_1 + y_8 + y_23 + y_26 + y_27 + y_34 + y_38 + y_40 + y_46 + y_61
   + y_64 + y_70 + y_82 + y_90 + y_91 + y_94 >= 1
 c_1_35: y_9 + y_15 + y_20 + y_24 + y_35 + y_36 + y_37 + y_45 + y_66 + y_79
   + y_87 + y_89 >= 1
 c_1_36: y_10 + y_14 + y_15 + y_19 + y_20 + y_24 + y_35 + y_36 + y_37
   + y_45 + y_71 + y_78 + y_79 + y_87 + y_89 >= 1
 c_1_37: y_10 + y_14 + y_15 + y_19 + y_20 + y_24 + y_30 + y_35 + y_36
   + y_37 + y_45 + y_63 + y_71 + y_78 + y_79 + y_87 + y_89 + y_93 >= 1
 c_1_38: y_1 + y_4 + y_8 + y_34 + y_38 + y_40 + y_46 + y_61 + y_62 + y_64
   + y_70 + y_90 + y_94 >= 1
 c_1_39: y_12 + y_21 + y_31 + y_32 + y_39 + y_43 + y_48 + y_49 + y_53
   + y_67 + y_69 + y_72 + y_92 >= 1
 c_1_40: y_1 + y_8 + y_34 + y_38 + y_40 + y_44 + y_46 + y_52 + y_61 + y_70
   + y_94 >= 1
 c_1_41: y_7 + y_15 + y_23 + y_26 + y_30 + y_41 + y_58 + y_63 + y_78 + y_88
   + y_91 + y_93 + y_94 >= 1
 c_1_42: y_33 + y_42 + y_60 + y_68 + y_80 + y_97 >= 1
 c_1_43: y_12 + y_31 + y_32 + y_39 + y_43 + y_48 + y_49 + y_53 + y_67
   + y_69 + y_72 + y_81 + y_92 >= 1
 c_1_44: y_1 + y_13 + y_17 + y_28 + y_40 + y_44 + y_52 + y_58 + y_70 + y_74
   + y_91 + y_94 + y_98 >= 1
 c_1_45: y_14 + y_15 + y_20 + y_24 + y_35 + y_36 + y_37 + y_45 + y_71
   + y_79 + y_87 + y_89 >= 1
 c_1_46: y_1 + y_4 + y_8 + y_34 + y_38 + y_40 + y_46 + y_61 + y_62 + y_64
   + y_70 + y_90 + y_94 >= 1
 c_1_47: y_2 + y_7 + y_17 + y_22 + y_28 + y_47 + y_54 + y_56 + y_58 + y_86
   + y_96 >= 1
 c_1_48: y_12 + y_16 + y_31 + y_32 + y_39 + y_43 + y_48 + y_53 + y_67
   + y_72 + y_81 + y_92 >= 1
 c_1_49: y_12 + y_31 + y_32 + y_39 + y_43 + y_49 + y_53 + y_69 + y_72 >= 1
 c_1_50: y_50 + y_57 + y_59 + y_73 >= 1
 c_1_51: y_11 + y_13 + y_51 + y_76 + y_84 + y_97 + y_98 >= 1
 c_1_52: y_11 + y_13 + y_17 + y_28 + y_40 + y_44 + y_52 + y_74 + y_84
   + y_98 >= 1
 c_1_53: y_12 + y_16 + y_31 + y_32 + y_39 + y_43 + y_48 + y_49 + y_53
   + y_67 + y_72 + y_77 + y_81 + y_92 >= 1
 c_1_54: y_2 + y_7 + y_17 + y_21 + y_22 + y_47 + y_54 + y_56 + y_58 + y_86
   + y_95 + y_96 >= 1
 c_1_55: y_2 + y_21 + y_22 + y_29 + y_33 + y_55 + y_56 + y_68 + y_80 + y_86
   + y_97 >= 1
 c_1_56: y_2 + y_17 + y_22 + y_28 + y_47 + y_54 + y_55 + y_56 + y_58 + y_74
   + y_80 + y_86 + y_96 + y_98 >= 1
 c_1_57: y_50 + y_57 + y_59 + y_62 + y_73 >= 1
 c_1_58: y_7 + y_17 + y_23 + y_41 + y_44 + y_47 + y_54 + y_56 + y_58 + y_88
   + y_91 + y_94 >= 1
 c_1_59: y_4 + y_50 + y_57 + y_59 + y_61 + y_62 + y_73 >= 1
 c_1_60: y_33 + y_42 + y_60 + y_68 >= 1
 c_1_61: y_1 + y_4 + y_8 + y_27 + y_34 + y_38 + y_40 + y_46 + y_59 + y_61
   + y_62 + y_64 + y_70 + y_90 >= 1
 c_1_62: y_4 + y_38 + y_46 + y_57 + y_59 + y_61 + y_62 + y_90 >= 1
 c_1_63: y_0 + y_10 + y_14 + y_15 + y_19 + y_23 + y_26 + y_30 + y_37 + y_41
   + y_63 + y_75 + y_78 + y_82 + y_93 >= 1
 c_1_64: y_4 + y_8 + y_27 + y_34 + y_38 + y_46 + y_61 + y_64 + y_70 + y_82
   + y_90 + y_94 >= 1
 c_1_65: y_0 + y_6 + y_18 + y_65 + y_75 + y_99 >= 1
 c_1_66: y_3 + y_7 + y_9 + y_25 + y_35 + y_66 + y_67 + y_77 + y_83 + y_92
   + y_95 >= 1
 c_1_67: y_3 + y_12 + y_16 + y_25 + y_31 + y_32 + y_39 + y_43 + y_48 + y_53
   + y_66 + y_67 + y_72 + y_77 + y_81 + y_83 + y_92 + y_95 >= 1
 c_1_68: y_2 + y_33 + y_42 + y_55 + y_60 + y_68 + y_80 + y_86 + y_97 >= 1
 c_1_69: y_12 + y_21 + y_29 + y_32 + y_39 + y_43 + y_49 + y_69 + y_72 >= 1
 c_1_70: y_1 + y_8 + y_26 + y_34 + y_38 + y_40 + y_44 + y_46 + y_61 + y_64
   + y_70 + y_82 + y_90 + y_91 + y_94 >= 1
 c_1_71: y_0 + y_10 + y_14 + y_15 + y_19 + y_20 + y_24 + y_36 + y_37 + y_45
   + y_71 + y_78 + y_79 + y_87 + y_89 + y_99 >= 1
 c_1_72: y_12 + y_25 + y_31 + y_32 + y_39 + y_43 + y_48 + y_49 + y_53
   + y_67 + y_69 + y_72 + y_77 + y_81 + y_83 + y_92 + y_95 + y_96 >= 1
 c_1_73: y_50 + y_57 + y_59 + y_73 >= 1
 c_1_74: y_2 + y_11 + y_13 + y_17 + y_28 + y_44 + y_52 + y_56 + y_74 + y_76
   + y_80 + y_84 + y_86 + y_97 + y_98 >= 1
 c_1_75: y_0 + y_6 + y_10 + y_14 + y_19 + y_26 + y_27 + y_30 + y_63 + y_65
   + y_75 + y_78 + y_82 + y_93 >= 1
 c_1_76: y_11 + y_13 + y_28 + y_51 + y_74 + y_76 + y_84 + y_97 + y_98 >= 1
 c_1_77: y_3 + y_9 + y_25 + y_32 + y_53 + y_66 + y_67 + y_72 + y_77 + y_83
   + y_92 + y_95 >= 1
 c_1_78: y_0 + y_10 + y_14 + y_15 + y_19 + y_20 + y_23 + y_24 + y_26 + y_30
   + y_36 + y_37 + y_41 + y_63 + y_71 + y_75 + y_78 + y_82 + y_93 >= 1
 c_1_79: y_14 + y_19 + y_20 + y_24 + y_35 + y_36 + y_37 + y_45 + y_71
   + y_79 + y_87 + y_89 + y_99 >= 1
 c_1_80: y_2 + y_28 + y_33 + y_42 + y_55 + y_56 + y_68 + y_74 + y_80 + y_84
   + y_86 + y_97 + y_98 >= 1
 c_1_81: y_12 + y_16 + y_31 + y_32 + y_43 + y_48 + y_53 + y_67 + y_72
   + y_81 + y_92 >= 1
 c_1_82: y_0 + y_6 + y_8 + y_10 + y_19 + y_23 + y_26 + y_27 + y_30 + y_34
   + y_63 + y_64 + y_70 + y_75 + y_78 + y_82 + y_85 + y_90 + y_93 + y_94
   >= 1
 c_1_83: y_3 + y_7 + y_9 + y_25 + y_66 + y_67 + y_72 + y_77 + y_83 + y_88
   + y_92 + y_95 + y_96 >= 1
 c_1_84: y_2 + y_11 + y_13 + y_28 + y_51 + y_52 + y_74 + y_76 + y_80 + y_84
   + y_86 + y_97 + y_98 >= 1
 c_1_85: y_6 + y_27 + y_82 + y_85 >= 1
 c_1_86: y_2 + y_17 + y_22 + y_28 + y_33 + y_47 + y_54 + y_55 + y_56 + y_68
   + y_74 + y_80 + y_84 + y_86 + y_97 + y_98 >= 1
 c_1_87: y_9 + y_20 + y_24 + y_35 + y_36 + y_37 + y_45 + y_71 + y_79 + y_87
   + y_89 >= 1
 c_1_88: y_3 + y_7 + y_15 + y_23 + y_25 + y_26 + y_41 + y_58 + y_83 + y_88
   + y_91 + y_95 >= 1
 c_1_89: y_14 + y_15 + y_20 + y_24 + y_35 + y_36 + y_37 + y_45 + y_71
   + y_79 + y_87 + y_89 >= 1
 c_1_90: y_4 + y_8 + y_27 + y_34 + y_38 + y_46 + y_61 + y_62 + y_64 + y_70
   + y_82 + y_90 + y_94 >= 1
 c_1_91: y_8 + y_17 + y_23 + y_26 + y_34 + y_41 + y_44 + y_58 + y_70 + y_88
   + y_91 + y_94 >= 1
 c_1_92: y_12 + y_16 + y_25 + y_31 + y_32 + y_39 + y_43 + y_48 + y_53
   + y_66 + y_67 + y_72 + y_77 + y_81 + y_83 + y_92 >= 1
 c_1_93: y_0 + y_10 + y_14 + y_15 + y_19 + y_23 + y_26 + y_30 + y_37 + y_41
   + y_63 + y_75 + y_78 + y_82 + y_93 >= 1
 c_1_94: y_8 + y_23 + y_26 + y_34 + y_38 + y_40 + y_41 + y_44 + y_46 + y_58
   + y_64 + y_70 + y_82 + y_90 + y_91 + y_94 >= 1
 c_1_95: y_3 + y_7 + y_9 + y_25 + y_54 + y_66 + y_67 + y_72 + y_77 + y_83
   + y_88 + y_95 + y_96 >= 1
 c_1_96: y_7 + y_21 + y_22 + y_25 + y_29 + y_47 + y_54 + y_56 + y_72 + y_83
   + y_95 + y_96 >= 1
 c_1_97: y_2 + y_11 + y_13 + y_28 + y_42 + y_51 + y_55 + y_68 + y_74 + y_76
   + y_80 + y_84 + y_86 + y_97 + y_98 >= 1
 c_1_98: y_2 + y_11 + y_13 + y_17 + y_28 + y_44 + y_51 + y_52 + y_56 + y_74
   + y_76 + y_80 + y_84 + y_86 + y_97 + y_98 >= 1
 c_1_99: y_0 + y_14 + y_18 + y_24 + y_65 + y_71 + y_79 + y_99 >= 1
Bounds
 Constant = 1
Binaries
 y_0 y_1 y_2 y_3 y_4 y_5 y_6 y_7 y_8 y_9 y_10 y_11 y_12 y_13 y_14 y_15 y_16
 y_17 y_18 y_19 y_20 y_21 y_22 y_23 y_24 y_25 y_26 y_27 y_28 y_29 y_30 y_31
 y_32 y_33 y_34 y_35 y_36 y_37 y_38 y_39 y_40 y_41 y_42 y_43 y_44 y_45 y_46
 y_47 y_48 y_49 y_50 y_51 y_52 y_53 y_54 y_55 y_56 y_57 y_58 y_59 y_60 y_61
 y_62 y_63 y_64 y_65 y_66 y_67 y_68 y_69 y_70 y_71 y_72 y_73 y_74 y_75 y_76
 y_77 y_78 y_79 y_80 y_81 y_82 y_83 y_84 y_85 y_86 y_87 y_88 y_89 y_90 y_91
 y_92 y_93 y_94 y_95 y_96 y_97 y_98 y_99
End
